10
0, 578, 470, 878, 726, 585, 446, 915, 832, 786
578, 0, 599, 486, 162, 695, 608, 723, 799, 225
470, 599, 0, 581, 659, 122, 31, 483, 363, 695
878, 486, 581, 0, 379, 592, 610, 328, 515, 352
726, 162, 659, 379, 0, 735, 675, 665, 785, 63
585, 695, 122, 592, 735, 0, 139, 424, 261, 762
446, 608, 31, 610, 675, 139, 0, 515, 390, 713
915, 723, 483, 328, 665, 424, 515, 0, 227, 656
832, 799, 363, 515, 785, 261, 390, 227, 0, 793
786, 225, 695, 352, 63, 762, 713, 656, 793, 0
